(set-logic QF_FPBV)
(set-option :produce-models true)
(set-info :source |Random FP created by PyMPF|)
(set-info :category random)
(set-info :status sat)
;; fp.from.ubv(BitVec 32)
(declare-const x (_ BitVec 32))
(assert (bvule x #b01000011001110010111111010111011))
;; x should be 1127841467
(declare-const r Float64)
(assert (= r ((_ to_fp_unsigned 11 53) RTZ x)))
(assert (fp.leq r ((_ to_fp 11 53) #x41D0CE5FAEC00000)))
(check-sat)
(exit)
